/*********************************************
 * OPL 22.1.2.0 Data
 * Author: adrien.dacostaveiga
 * Creation Date: Apr 1, 2026 at 3:36:00 PM
 *********************************************/
 
// =====================================================
// JEU DE VALIDATION CROISÉE (AIRLAND1) - RÉDUIT (5 avions)
// =====================================================

// ======================
// DIMENSIONS
// ======================
n = 5;
m = 1;

// ======================
// DATES D’ATTERRISSAGE CIBLES (COMMUNES P1 / P2 / P3)
// ======================
T = [
  90, 150, 60, 70, 80
];

// ======================
// POIDS DE PÉNALITÉ
// ======================
cMinus = [
  10, 10, 30, 30, 30
];

cPlus = [
  10, 10, 30, 30, 30
];

// ======================
// DATES CIBLES (DEADLINES)
// ======================
A = [
  129, 195, 89, 96, 110
];

// ======================
// TEMPS ADDITIONNELS (t[i][r])
// ======================
// (ici : une seule piste)
t = [
  [10],
  [10],
  [10],
  [10],
  [10]
];

// ======================
// SOLUTIONS (TEMPS D’ATTERRISSAGE)
// ======================
xP1 = [95 150 60 70 80];

xP2 = [54 120 14 21 35];

xP3 = [129 126 51 43 35];

// ======================
// AFFECTATION AUX PISTES
// ======================
runwayP1 = [1,1,1,1,1];
runwayP2 = [1,1,1,1,1];
runwayP3 = [1,1,1,1,1];